100
32
10
15
22
11
1
26
26
7
27
31
7
17
2
1
2
2
1
3
18
3
1
2
1
1
2
18
1
1
2
1
3
3
2
1
2
2
1
1
1
18
2
17
17
18
4
2
2
3
1
3
3
3
3
7
3
3
3
1
2
1
1
1
1
1
1
16
1
1
2
7
2
4
1
2
18
1
5
2
1
1
3
2
2
1
1
1
1
6
1
2
2
1
2
1
17
1
1
1
1
2